(declare-const a_init Int)
(declare-const b_init Int)
(declare-const olda_init Int)
(declare-const c_0 Int)
(declare-const c_1 Int)
(declare-const c_2 Int)
(declare-const c_3 Int)
(declare-const c_4 Int)
(declare-const c_5 Int)
(declare-const c_6 Int)
(declare-const c_7 Int)
(declare-const c_8 Int)
(declare-const c_9 Int)
(declare-const c_10 Int)
(declare-const c_11 Int)
(assert (< c_0 0))
(assert (and (>= (+ (* (- 1) a_init ) (* 1 c_1 ) ) 0) (>= (+ (* 1 a_init ) (* (- 1) c_1 ) ) 0) (>= (+ (* (- 1) b_init ) (* 1 c_2 ) ) 0) (>= (+ (* 1 b_init ) (* (- 1) c_2 ) ) 0) (>= (+ (* 1 c_3 ) (* (- 1) olda_init ) ) 0) (>= (+ (* (- 1) c_3 ) (* 1 olda_init ) ) 0) ))
(assert (forall ((a Real) (b Real) (olda Real) ) (=> (and (>= (+ (* (- 1) a ) (* 1 c_1 ) ) 0) (>= (+ (* 1 a ) (* (- 1) c_1 ) ) 0) (>= (+ (* (- 1) b ) (* 1 c_2 ) ) 0) (>= (+ (* 1 b ) (* (- 1) c_2 ) ) 0) (>= (+ (* 1 c_3 ) (* (- 1) olda ) ) 0) (>= (+ (* (- 1) c_3 ) (* 1 olda ) ) 0) ) (>= (+ (* 1 a c_5 ) (* 1 b c_6 ) (* 1 c_4 ) (* 1 c_7 olda ) ) 0) )))
(assert (forall ((a Real) (b Real) (olda Real) ) (=> (and (>= (+ (* (- 1) a ) (* 1 c_1 ) ) 0) (>= (+ (* 1 a ) (* (- 1) c_1 ) ) 0) (>= (+ (* (- 1) b ) (* 1 c_2 ) ) 0) (>= (+ (* 1 b ) (* (- 1) c_2 ) ) 0) (>= (+ (* 1 c_3 ) (* (- 1) olda ) ) 0) (>= (+ (* (- 1) c_3 ) (* 1 olda ) ) 0) ) (>= (+ (* 1 a c_9 ) (* 1 b c_10 ) (* 1 c_11 olda ) (* 1 c_8 ) ) 0) )))
(assert (forall ((a Real) (b Real) (olda Real) ) (=> (and (>= (+ (* (- 7) 1) (* 1 a ) ) 0) (>= (+ (* 1 a c_5 ) (* 1 b c_6 ) (* 1 c_4 ) (* 1 c_7 olda ) ) 0) (>= (+ (* 1 a c_9 ) (* 1 b c_10 ) (* 1 c_11 olda ) (* 1 c_8 ) ) 0) ) (>= (+ (* 1 a c_6 ) (* 1 a c_7 ) (* 1 b c_5 ) (* 1 c_4 ) (* 1 c_6 ) ) 0) )))
(assert (forall ((a Real) (b Real) (olda Real) ) (=> (and (>= (+ (* (- 7) 1) (* 1 a ) ) 0) (>= (+ (* 1 a c_5 ) (* 1 b c_6 ) (* 1 c_4 ) (* 1 c_7 olda ) ) 0) (>= (+ (* 1 a c_9 ) (* 1 b c_10 ) (* 1 c_11 olda ) (* 1 c_8 ) ) 0) ) (>= (+ (* 1 a c_10 ) (* 1 a c_11 ) (* 1 b c_9 ) (* 1 c_10 ) (* 1 c_8 ) ) 0) )))
(assert (forall ((a Real) (b Real) (olda Real) ) (=> (and (>= (+ (* 6 1) (* (- 1) a ) ) 0) (>= (+ (* 1 a c_5 ) (* 1 b c_6 ) (* 1 c_4 ) (* 1 c_7 olda ) ) 0) (>= (+ (* 1 a c_9 ) (* 1 b c_10 ) (* 1 c_11 olda ) (* 1 c_8 ) ) 0) ) (>= (* 1 c_0 ) 0) )))
(check-sat)
(get-model)

